proyfinal/src/viki/013/andrea/andrea-localstore/experimentInOfficeAgust.take6/worker_1/834d3350-f0c5-4a41-9675-98d7c1b7e0f0.als.cnf.out
Reading from standard input... Use '--help' for help.
============================[ Problem Statistics ]=============================
|                                                                             |
|  Number of variables:         87638                                         |
|  Number of clauses:          161767                                         |
|  Parse time:                   0.03 s                                       |
|                                                                             |
============================[ Search Statistics ]==============================
| Conflicts |          ORIGINAL         |          LEARNT          | Progress |
|           |    Vars  Clauses Literals |    Limit  Clauses Lit/Cl |          |
===============================================================================
|       100 |   63199   108090   270306 |    39633      100     21 | 27.886 % |
|       250 |   63198   108090   270306 |    43596      249     57 | 27.887 % |
|       475 |   63198   108046   270216 |    47955      474     58 | 27.888 % |
|       812 |   63148   107838   269740 |    52751      809     55 | 27.944 % |
|      1318 |   63148   107838   269740 |    58026     1315     81 | 27.944 % |
|      2077 |   63085   107610   269141 |    63829     2024     88 | 28.016 % |
|      3216 |   63085   107610   269141 |    70212     3163     88 | 28.016 % |
|      4924 |   48430    64972   164282 |    77233     4369     94 | 44.739 % |
|      7486 |   47606    63832   161355 |    84956     6906     78 | 45.679 % |
===============================================================================
restarts              : 45
conflicts             : 10141          (6592 /sec)
decisions             : 34679          (0.00 % random) (22543 /sec)
propagations          : 16638249       (10815702 /sec)
conflict literals     : 692774         (43.62 % deleted)
Memory used           : 32.70 MB
CPU time              : 1.53834 s

UNSATISFIABLE
